#######################################
### Exact MIP solver for the HHCRSP ###
#######################################
-- Instance file: new-instances/HHCRSP_200_40_88_1.6_R_C.txt
-- Max threads: 4
-- Time limit: 999999 seconds
-- Use initial solution: No
Trivial flow violations prevented generating 361803 variables.
Version identifier: 20.1.0.0 | 2020-11-10 | 9bedb6d68
CPXPARAM_Threads                                 4
CPXPARAM_TimeLimit                               999999
Parallel mode: deterministic, using up to 4 threads for concurrent optimization:
 * Starting dual Simplex on 1 thread...
 * Starting Barrier on 3 threads...
Tried aggregator 1 time.
LP Presolve eliminated 21354 rows and 4921 columns.
Reduced LP has 388034 rows, 368976 columns, and 6702123 nonzeros.
Presolve time = 14.43 sec. (1553.37 ticks)
Symmetry aggregator did 569323 additional substitutions.
Initializing dual steep norms . . .

Iteration log . . .
Iteration:     1   Dual objective     =             0.666667
Iteration:   932   Dual objective     =           206.000000

Dual crossover.
  Dual:  Fixing 866 variables.
      865 DMoves:  Infeasibility  6.55864269e-13  Objective  2.08000000e+02
        0 DMoves:  Infeasibility  2.95985475e-13  Objective  2.08000000e+02
  Dual:  Pushed 11, exchanged 855.
  Primal:  Fixing 508 variables.
      507 PMoves:  Infeasibility  3.33066907e-16  Objective  2.08000000e+02
        0 PMoves:  Infeasibility  4.71844785e-16  Objective  2.08000000e+02
  Primal:  Pushed 416, exchanged 92.

Dual simplex solved model.


Solution status from MIP model:
-- Processing time: 25.413 sec.
-- Memory used: 424.666 MB
-- Best bound: inf
-- Obj value: 208
-- Gap: inf%
-- Total distance: 624
-- Total tardiness: 0
-- Largest tardiness: 0
